(benchmark random_random81_smt
:extrafuns ((x0 BitVec[24]))
:extrafuns ((x1 BitVec[24]))
:extrafuns ((x2 BitVec[24]))
:extrafuns ((x3 BitVec[24]))
:extrafuns ((x4 BitVec[24]))
:extrafuns ((x5 BitVec[24]))
:extrafuns ((x6 BitVec[24]))
:extrafuns ((x7 BitVec[24]))
:extrafuns ((x8 BitVec[24]))
:extrafuns ((x9 BitVec[24]))
:extrafuns ((x10 BitVec[24]))
:extrafuns ((x11 BitVec[24]))
:extrafuns ((x12 BitVec[24]))
:extrafuns ((x13 BitVec[24]))
:extrafuns ((x14 BitVec[24]))
:extrafuns ((x15 BitVec[24]))
:extrafuns ((x16 BitVec[24]))
:extrafuns ((x17 BitVec[24]))
:extrafuns ((x18 BitVec[24]))
:extrafuns ((x19 BitVec[24]))


:formula (and (not (= (bvadd (bvmul bv2927730[24] x0) 
                        (bvadd (bvmul bv11011874[24] x1) 
                        (bvadd (bvmul bv7181551[24] x3) 
                        (bvadd (bvmul bv38297[24] x4) 
                        (bvadd (bvmul bv2536793[24] x15) 
                        (bvadd (bvmul bv5900738[24] x17) (bvmul bv13401972[24] x19)))))))
	              bv11606362[24]))
         (and (not (= (bvadd (bvmul bv8086515[24] x0) 
                        (bvadd (bvmul bv11014246[24] x2) 
                        (bvadd (bvmul bv15956277[24] x5) 
                        (bvadd (bvmul bv10817537[24] x6) 
                        (bvadd (bvmul bv11782176[24] x7) 
                        (bvadd (bvmul bv1096384[24] x8) 
                        (bvadd (bvmul bv2164400[24] x9) 
                        (bvadd (bvmul bv4247855[24] x14) 
                        (bvadd (bvmul bv16727196[24] x15) 
                        (bvadd (bvmul bv14823385[24] x16) (bvmul bv11448143[24] x18)))))))))))
	              bv3907686[24]))
         (and (not (= (bvadd (bvmul bv13771689[24] x2) 
                        (bvadd (bvmul bv15678579[24] x3) 
                        (bvadd (bvmul bv8573651[24] x4) 
                        (bvadd (bvmul bv2474736[24] x5) 
                        (bvadd (bvmul bv2367585[24] x9) 
                        (bvadd (bvmul bv2651914[24] x11) 
                        (bvadd (bvmul bv1254054[24] x12) 
                        (bvadd (bvmul bv15703646[24] x13) 
                        (bvadd (bvmul bv11173518[24] x14) 
                        (bvadd (bvmul bv8222872[24] x15) 
                        (bvadd (bvmul bv6163550[24] x16) (bvmul bv5651244[24] x19))))))))))))
	              bv7731071[24]))
         (and (not (= (bvadd (bvmul bv8922097[24] x4) 
                        (bvadd (bvmul bv13554870[24] x5) 
                        (bvadd (bvmul bv1270321[24] x6) 
                        (bvadd (bvmul bv8823289[24] x7) 
                        (bvadd (bvmul bv4945546[24] x12) 
                        (bvadd (bvmul bv15122248[24] x14) 
                        (bvadd (bvmul bv10341377[24] x15) 
                        (bvadd (bvmul bv16504928[24] x17) 
                        (bvadd (bvmul bv11782171[24] x18) (bvmul bv15112950[24] x19))))))))))
	              bv2736027[24]))
         (and (bvule      (bvadd (bvmul bv981455[24] x0) 
                        (bvadd (bvmul bv12006570[24] x3) 
                        (bvadd (bvmul bv11942464[24] x5) 
                        (bvadd (bvmul bv7680030[24] x10) 
                        (bvadd (bvmul bv6657516[24] x11) 
                        (bvadd (bvmul bv12976610[24] x12) 
                        (bvadd (bvmul bv8109056[24] x14) 
                        (bvadd (bvmul bv761300[24] x15) 
                        (bvadd (bvmul bv10223006[24] x17) 
                        (bvadd (bvmul bv5686577[24] x18) (bvmul bv795710[24] x19)))))))))))
	              bv4678137[24])
         (and (bvule      (bvadd (bvmul bv3880183[24] x0) 
                        (bvadd (bvmul bv4824571[24] x1) 
                        (bvadd (bvmul bv9583303[24] x2) 
                        (bvadd (bvmul bv11052003[24] x3) 
                        (bvadd (bvmul bv4199085[24] x4) 
                        (bvadd (bvmul bv1069472[24] x5) 
                        (bvadd (bvmul bv5943356[24] x6) 
                        (bvadd (bvmul bv3725099[24] x7) 
                        (bvadd (bvmul bv6320850[24] x9) 
                        (bvadd (bvmul bv841176[24] x10) 
                        (bvadd (bvmul bv3895901[24] x12) 
                        (bvadd (bvmul bv6969420[24] x13) 
                        (bvadd (bvmul bv2751294[24] x16) (bvmul bv8291146[24] x17))))))))))))))
	              bv13115718[24])
         (and (bvule      (bvadd (bvmul bv10002318[24] x1) 
                        (bvadd (bvmul bv15056346[24] x4) 
                        (bvadd (bvmul bv4222488[24] x6) 
                        (bvadd (bvmul bv6014206[24] x8) 
                        (bvadd (bvmul bv4537722[24] x9) 
                        (bvadd (bvmul bv7018487[24] x11) 
                        (bvadd (bvmul bv270305[24] x12) 
                        (bvadd (bvmul bv4466101[24] x16) (bvmul bv11608662[24] x19)))))))))
	              bv1894521[24])
         (and (bvule      (bvadd (bvmul bv572464[24] x0) 
                        (bvadd (bvmul bv2320855[24] x1) 
                        (bvadd (bvmul bv15644616[24] x4) 
                        (bvadd (bvmul bv3089890[24] x6) 
                        (bvadd (bvmul bv9230904[24] x7) 
                        (bvadd (bvmul bv4999014[24] x8) 
                        (bvadd (bvmul bv11103416[24] x9) 
                        (bvadd (bvmul bv1643722[24] x12) 
                        (bvadd (bvmul bv15564303[24] x13) 
                        (bvadd (bvmul bv3459156[24] x17) (bvmul bv3678243[24] x18)))))))))))
	              bv8328974[24])
         (and (bvule      (bvadd (bvmul bv4838977[24] x2) 
                        (bvadd (bvmul bv3706378[24] x4) 
                        (bvadd (bvmul bv15900366[24] x9) 
                        (bvadd (bvmul bv10226567[24] x11) 
                        (bvadd (bvmul bv3298502[24] x13) (bvmul bv9544884[24] x17))))))
	              bv13004041[24])
         (and (bvule      (bvadd (bvmul bv12184922[24] x3) 
                        (bvadd (bvmul bv5022943[24] x10) 
                        (bvadd (bvmul bv10991609[24] x11) 
                        (bvadd (bvmul bv16291245[24] x13) 
                        (bvadd (bvmul bv3321836[24] x14) 
                        (bvadd (bvmul bv6620339[24] x16) 
                        (bvadd (bvmul bv1755276[24] x17) 
                        (bvadd (bvmul bv9913036[24] x18) (bvmul bv14044711[24] x19)))))))))
	              bv14169007[24])
         (and (bvule      (bvadd (bvmul bv14740478[24] x3) 
                        (bvadd (bvmul bv4736856[24] x5) 
                        (bvadd (bvmul bv5128108[24] x7) 
                        (bvadd (bvmul bv15682793[24] x10) 
                        (bvadd (bvmul bv8778062[24] x12) (bvmul bv12099898[24] x14))))))
	              bv10648953[24])
         (and (bvule      (bvadd (bvmul bv15771733[24] x0) 
                        (bvadd (bvmul bv6521506[24] x2) 
                        (bvadd (bvmul bv1727553[24] x3) 
                        (bvadd (bvmul bv7719213[24] x4) 
                        (bvadd (bvmul bv12456069[24] x6) 
                        (bvadd (bvmul bv10958014[24] x11) 
                        (bvadd (bvmul bv3492571[24] x15) 
                        (bvadd (bvmul bv11381451[24] x16) 
                        (bvadd (bvmul bv823747[24] x17) (bvmul bv736577[24] x18))))))))))
	              bv7196212[24])
         (and (bvule      (bvadd (bvmul bv4289839[24] x0) 
                        (bvadd (bvmul bv12925095[24] x1) 
                        (bvadd (bvmul bv8091396[24] x2) 
                        (bvadd (bvmul bv9663129[24] x3) 
                        (bvadd (bvmul bv336701[24] x4) 
                        (bvadd (bvmul bv3778365[24] x6) 
                        (bvadd (bvmul bv12296427[24] x7) 
                        (bvadd (bvmul bv9694596[24] x8) 
                        (bvadd (bvmul bv12917402[24] x11) 
                        (bvadd (bvmul bv11024853[24] x13) 
                        (bvadd (bvmul bv9582180[24] x14) 
                        (bvadd (bvmul bv9867245[24] x15) 
                        (bvadd (bvmul bv366706[24] x16) 
                        (bvadd (bvmul bv4656546[24] x18) (bvmul bv6212970[24] x19)))))))))))))))
	              bv15467892[24])
         (and (bvule      (bvadd (bvmul bv458729[24] x5) 
                        (bvadd (bvmul bv3579748[24] x8) 
                        (bvadd (bvmul bv2455169[24] x9) 
                        (bvadd (bvmul bv15372571[24] x11) 
                        (bvadd (bvmul bv4718035[24] x14) 
                        (bvadd (bvmul bv10372142[24] x17) (bvmul bv3660017[24] x19)))))))
	              bv9714848[24])
         (and (bvule      (bvadd (bvmul bv9872988[24] x0) 
                        (bvadd (bvmul bv3429083[24] x1) 
                        (bvadd (bvmul bv16759332[24] x2) 
                        (bvadd (bvmul bv1609284[24] x3) 
                        (bvadd (bvmul bv9634294[24] x4) 
                        (bvadd (bvmul bv16474436[24] x5) 
                        (bvadd (bvmul bv14553569[24] x7) 
                        (bvadd (bvmul bv14330871[24] x12) 
                        (bvadd (bvmul bv15745321[24] x13) 
                        (bvadd (bvmul bv4197351[24] x14) 
                        (bvadd (bvmul bv7979182[24] x15) 
                        (bvadd (bvmul bv11647695[24] x16) (bvmul bv2193287[24] x17)))))))))))))
	              bv10598813[24])
         (and (bvule      (bvadd (bvmul bv1919152[24] x0) 
                        (bvadd (bvmul bv4191126[24] x1) 
                        (bvadd (bvmul bv13341193[24] x4) 
                        (bvadd (bvmul bv2589978[24] x7) 
                        (bvadd (bvmul bv12808504[24] x8) 
                        (bvadd (bvmul bv613394[24] x9) 
                        (bvadd (bvmul bv13572156[24] x17) 
                        (bvadd (bvmul bv7674294[24] x18) (bvmul bv6037028[24] x19)))))))))
	              bv12409268[24])
         (and (bvule      (bvadd (bvmul bv1052590[24] x0) 
                        (bvadd (bvmul bv3390758[24] x1) 
                        (bvadd (bvmul bv2291922[24] x4) 
                        (bvadd (bvmul bv13320783[24] x5) 
                        (bvadd (bvmul bv15680212[24] x8) 
                        (bvadd (bvmul bv16293606[24] x10) 
                        (bvadd (bvmul bv16032062[24] x11) (bvmul bv16716652[24] x12))))))))
	              bv16512430[24])
         (and (bvule      (bvadd (bvmul bv7505245[24] x2) 
                        (bvadd (bvmul bv12748962[24] x4) 
                        (bvadd (bvmul bv16481103[24] x7) 
                        (bvadd (bvmul bv8926053[24] x13) (bvmul bv5223012[24] x19)))))
	              bv7529871[24])
         (and (bvule      (bvadd (bvmul bv5969999[24] x0) 
                        (bvadd (bvmul bv6841509[24] x4) 
                        (bvadd (bvmul bv5126184[24] x5) 
                        (bvadd (bvmul bv1097932[24] x7) 
                        (bvadd (bvmul bv15406233[24] x8) 
                        (bvadd (bvmul bv9586287[24] x9) 
                        (bvadd (bvmul bv2577637[24] x10) 
                        (bvadd (bvmul bv4696669[24] x12) 
                        (bvadd (bvmul bv8661678[24] x13) 
                        (bvadd (bvmul bv65364[24] x15) 
                        (bvadd (bvmul bv12826072[24] x18) (bvmul bv7948967[24] x19))))))))))))
	              bv2018856[24])
         (and (bvule      (bvadd (bvmul bv7724071[24] x1) 
                        (bvadd (bvmul bv160387[24] x6) 
                        (bvadd (bvmul bv5811776[24] x9) 
                        (bvadd (bvmul bv15182169[24] x10) 
                        (bvadd (bvmul bv12052024[24] x11) 
                        (bvadd (bvmul bv13086084[24] x12) (bvmul bv9349607[24] x18)))))))
	              bv6292880[24])
         (and (bvule      (bvadd (bvmul bv8311737[24] x1) 
                        (bvadd (bvmul bv6840400[24] x4) 
                        (bvadd (bvmul bv15630301[24] x7) 
                        (bvadd (bvmul bv2587671[24] x13) 
                        (bvadd (bvmul bv8419527[24] x14) 
                        (bvadd (bvmul bv14742791[24] x16) 
                        (bvadd (bvmul bv3408221[24] x18) (bvmul bv8483432[24] x19))))))))
	              bv12757828[24])
         (and (bvule      (bvadd (bvmul bv16767054[24] x1) 
                        (bvadd (bvmul bv6310835[24] x2) 
                        (bvadd (bvmul bv5569430[24] x4) 
                        (bvadd (bvmul bv4982235[24] x5) 
                        (bvadd (bvmul bv8860009[24] x6) 
                        (bvadd (bvmul bv10725609[24] x8) 
                        (bvadd (bvmul bv6917090[24] x15) 
                        (bvadd (bvmul bv7793687[24] x16) 
                        (bvadd (bvmul bv11530417[24] x17) (bvmul bv12068516[24] x18))))))))))
	              bv7182522[24])
         (and (bvule      (bvadd (bvmul bv1235732[24] x0) 
                        (bvadd (bvmul bv4355463[24] x4) 
                        (bvadd (bvmul bv10443912[24] x5) 
                        (bvadd (bvmul bv7141137[24] x6) 
                        (bvadd (bvmul bv6559587[24] x8) 
                        (bvadd (bvmul bv1436887[24] x9) 
                        (bvadd (bvmul bv14878088[24] x10) 
                        (bvadd (bvmul bv15793436[24] x12) 
                        (bvadd (bvmul bv6489468[24] x13) 
                        (bvadd (bvmul bv3690055[24] x14) 
                        (bvadd (bvmul bv16228369[24] x17) 
                        (bvadd (bvmul bv5297272[24] x18) (bvmul bv11532798[24] x19)))))))))))))
	              bv12469635[24])
         (and (bvule      (bvadd (bvmul bv4899524[24] x2) 
                        (bvadd (bvmul bv3135662[24] x3) 
                        (bvadd (bvmul bv5782071[24] x4) 
                        (bvadd (bvmul bv12341658[24] x6) 
                        (bvadd (bvmul bv5725197[24] x8) 
                        (bvadd (bvmul bv5297575[24] x10) 
                        (bvadd (bvmul bv10811758[24] x11) 
                        (bvadd (bvmul bv11561795[24] x12) 
                        (bvadd (bvmul bv15946897[24] x13) 
                        (bvadd (bvmul bv15398052[24] x15) 
                        (bvadd (bvmul bv1136622[24] x16) 
                        (bvadd (bvmul bv6897661[24] x17) 
                        (bvadd (bvmul bv10730132[24] x18) (bvmul bv6298007[24] x19))))))))))))))
	              bv15629657[24])
         (and (bvule      (bvadd (bvmul bv13089665[24] x1) 
                        (bvadd (bvmul bv15096040[24] x2) 
                        (bvadd (bvmul bv456296[24] x4) 
                        (bvadd (bvmul bv694641[24] x6) 
                        (bvadd (bvmul bv11188118[24] x9) 
                        (bvadd (bvmul bv11511002[24] x10) 
                        (bvadd (bvmul bv14389548[24] x11) 
                        (bvadd (bvmul bv4752066[24] x12) 
                        (bvadd (bvmul bv8720878[24] x13) 
                        (bvadd (bvmul bv2717731[24] x16) (bvmul bv16001817[24] x19)))))))))))
	              bv15881885[24])
         (and (bvule      (bvadd (bvmul bv12727490[24] x1) 
                        (bvadd (bvmul bv2482535[24] x2) 
                        (bvadd (bvmul bv5148257[24] x11) 
                        (bvadd (bvmul bv8420703[24] x12) 
                        (bvadd (bvmul bv13172770[24] x14) 
                        (bvadd (bvmul bv1124629[24] x15) (bvmul bv5001975[24] x18)))))))
	              bv8007092[24])
         (and (bvule      (bvadd (bvmul bv5009769[24] x0) 
                        (bvadd (bvmul bv546823[24] x2) 
                        (bvadd (bvmul bv3029358[24] x4) 
                        (bvadd (bvmul bv7750080[24] x6) 
                        (bvadd (bvmul bv492984[24] x7) 
                        (bvadd (bvmul bv1400751[24] x8) 
                        (bvadd (bvmul bv6549008[24] x10) 
                        (bvadd (bvmul bv3998636[24] x11) 
                        (bvadd (bvmul bv6590066[24] x12) (bvmul bv7680649[24] x17))))))))))
	              bv15687741[24])
         (and (bvule      (bvadd (bvmul bv2737315[24] x5) 
                        (bvadd (bvmul bv506689[24] x6) 
                        (bvadd (bvmul bv2581326[24] x9) 
                        (bvadd (bvmul bv13379801[24] x10) 
                        (bvadd (bvmul bv3151594[24] x12) 
                        (bvadd (bvmul bv12461194[24] x14) 
                        (bvadd (bvmul bv3987341[24] x16) (bvmul bv1002280[24] x17))))))))
	              bv8682692[24])
         (and (bvule      (bvadd (bvmul bv11384901[24] x2) 
                        (bvadd (bvmul bv659993[24] x3) 
                        (bvadd (bvmul bv4529390[24] x7) 
                        (bvadd (bvmul bv16508440[24] x9) 
                        (bvadd (bvmul bv13111026[24] x11) 
                        (bvadd (bvmul bv8766100[24] x12) 
                        (bvadd (bvmul bv13807028[24] x13) 
                        (bvadd (bvmul bv5194454[24] x15) (bvmul bv4296576[24] x17)))))))))
	              bv11079346[24])
         (and (bvule      (bvadd (bvmul bv3734033[24] x0) 
                        (bvadd (bvmul bv11530957[24] x1) 
                        (bvadd (bvmul bv11711017[24] x2) 
                        (bvadd (bvmul bv1230317[24] x3) 
                        (bvadd (bvmul bv15588260[24] x4) 
                        (bvadd (bvmul bv3485892[24] x5) 
                        (bvadd (bvmul bv3217118[24] x7) 
                        (bvadd (bvmul bv13191845[24] x8) 
                        (bvadd (bvmul bv7818915[24] x9) 
                        (bvadd (bvmul bv4848729[24] x11) 
                        (bvadd (bvmul bv10982936[24] x12) 
                        (bvadd (bvmul bv118864[24] x13) 
                        (bvadd (bvmul bv14339759[24] x14) 
                        (bvadd (bvmul bv8641891[24] x16) 
                        (bvadd (bvmul bv8637321[24] x18) (bvmul bv12298637[24] x19))))))))))))))))
	              bv3571123[24])
         (and (bvule      (bvadd (bvmul bv13528955[24] x0) 
                        (bvadd (bvmul bv12180926[24] x2) 
                        (bvadd (bvmul bv10537686[24] x4) 
                        (bvadd (bvmul bv9706992[24] x5) 
                        (bvadd (bvmul bv748692[24] x7) 
                        (bvadd (bvmul bv7817902[24] x8) 
                        (bvadd (bvmul bv7351182[24] x12) 
                        (bvadd (bvmul bv13203150[24] x13) 
                        (bvadd (bvmul bv5608956[24] x14) 
                        (bvadd (bvmul bv16381853[24] x18) (bvmul bv499057[24] x19)))))))))))
	              bv10617426[24])
         (and (bvule      (bvadd (bvmul bv3026683[24] x0) 
                        (bvadd (bvmul bv1007360[24] x3) 
                        (bvadd (bvmul bv7955538[24] x6) 
                        (bvadd (bvmul bv11463045[24] x7) 
                        (bvadd (bvmul bv3339502[24] x11) 
                        (bvadd (bvmul bv1117657[24] x12) 
                        (bvadd (bvmul bv12349794[24] x13) 
                        (bvadd (bvmul bv4334531[24] x14) 
                        (bvadd (bvmul bv7123191[24] x16) 
                        (bvadd (bvmul bv14997021[24] x17) (bvmul bv8837233[24] x19)))))))))))
	              bv495096[24])
         (and (bvule      (bvadd (bvmul bv7737846[24] x1) 
                        (bvadd (bvmul bv13508638[24] x2) 
                        (bvadd (bvmul bv11627907[24] x3) 
                        (bvadd (bvmul bv5125883[24] x5) 
                        (bvadd (bvmul bv9781264[24] x10) 
                        (bvadd (bvmul bv8506839[24] x12) 
                        (bvadd (bvmul bv12724479[24] x13) 
                        (bvadd (bvmul bv14551705[24] x14) 
                        (bvadd (bvmul bv3187346[24] x15) 
                        (bvadd (bvmul bv9559453[24] x16) 
                        (bvadd (bvmul bv10187443[24] x17) (bvmul bv11281524[24] x19))))))))))))
	              bv14120749[24])
         (and (bvule      (bvadd (bvmul bv8817416[24] x2) 
                        (bvadd (bvmul bv1520735[24] x3) 
                        (bvadd (bvmul bv4615168[24] x4) 
                        (bvadd (bvmul bv11056930[24] x6) 
                        (bvadd (bvmul bv4060979[24] x8) 
                        (bvadd (bvmul bv4762793[24] x11) 
                        (bvadd (bvmul bv2537283[24] x13) 
                        (bvadd (bvmul bv11819321[24] x14) 
                        (bvadd (bvmul bv7148861[24] x15) (bvmul bv12778443[24] x18))))))))))
	              bv6111867[24])
         (and (bvule      (bvadd (bvmul bv7210460[24] x0) 
                        (bvadd (bvmul bv11314914[24] x5) 
                        (bvadd (bvmul bv5594629[24] x7) 
                        (bvadd (bvmul bv1009759[24] x8) 
                        (bvadd (bvmul bv2278603[24] x9) 
                        (bvadd (bvmul bv14078186[24] x13) 
                        (bvadd (bvmul bv8705856[24] x14) 
                        (bvadd (bvmul bv7458795[24] x15) 
                        (bvadd (bvmul bv12783019[24] x16) 
                        (bvadd (bvmul bv7845837[24] x17) 
                        (bvadd (bvmul bv1321007[24] x18) (bvmul bv4861823[24] x19))))))))))))
	              bv8531467[24])
         (and (bvule      (bvadd (bvmul bv9756816[24] x0) 
                        (bvadd (bvmul bv15852092[24] x1) 
                        (bvadd (bvmul bv4434783[24] x3) 
                        (bvadd (bvmul bv15363542[24] x4) 
                        (bvadd (bvmul bv16443322[24] x5) 
                        (bvadd (bvmul bv8404678[24] x9) 
                        (bvadd (bvmul bv1206144[24] x11) 
                        (bvadd (bvmul bv3332198[24] x12) 
                        (bvadd (bvmul bv9878173[24] x13) 
                        (bvadd (bvmul bv7414078[24] x14) 
                        (bvadd (bvmul bv14904500[24] x17) 
                        (bvadd (bvmul bv489338[24] x18) (bvmul bv5963674[24] x19)))))))))))))
	              bv15720552[24])
         (and (bvule      (bvadd (bvmul bv12575077[24] x0) 
                        (bvadd (bvmul bv15781477[24] x1) 
                        (bvadd (bvmul bv7298577[24] x2) 
                        (bvadd (bvmul bv10897532[24] x3) 
                        (bvadd (bvmul bv16229437[24] x4) 
                        (bvadd (bvmul bv7856900[24] x6) 
                        (bvadd (bvmul bv14771378[24] x9) 
                        (bvadd (bvmul bv950769[24] x10) 
                        (bvadd (bvmul bv8364848[24] x12) 
                        (bvadd (bvmul bv678589[24] x13) 
                        (bvadd (bvmul bv812057[24] x16) (bvmul bv13787713[24] x19))))))))))))
	              bv15424200[24])
         (and (bvule      (bvadd (bvmul bv12791976[24] x0) 
                        (bvadd (bvmul bv15766222[24] x1) 
                        (bvadd (bvmul bv3998729[24] x2) 
                        (bvadd (bvmul bv10333139[24] x3) 
                        (bvadd (bvmul bv1412825[24] x5) 
                        (bvadd (bvmul bv89893[24] x6) 
                        (bvadd (bvmul bv7839498[24] x7) 
                        (bvadd (bvmul bv11426640[24] x8) 
                        (bvadd (bvmul bv2641784[24] x9) 
                        (bvadd (bvmul bv205822[24] x14) (bvmul bv1701931[24] x19)))))))))))
	              bv12372091[24])
         (and (bvule      (bvadd (bvmul bv11580342[24] x0) 
                        (bvadd (bvmul bv4270149[24] x1) 
                        (bvadd (bvmul bv9113405[24] x2) 
                        (bvadd (bvmul bv4676482[24] x3) 
                        (bvadd (bvmul bv14521817[24] x5) 
                        (bvadd (bvmul bv5584100[24] x7) 
                        (bvadd (bvmul bv4364195[24] x8) 
                        (bvadd (bvmul bv7378468[24] x10) 
                        (bvadd (bvmul bv1900227[24] x11) 
                        (bvadd (bvmul bv10195424[24] x12) 
                        (bvadd (bvmul bv10559396[24] x14) (bvmul bv1323100[24] x19))))))))))))
	              bv1666054[24])
              (bvule      (bvadd (bvmul bv5593249[24] x0) 
                        (bvadd (bvmul bv8473096[24] x9) 
                        (bvadd (bvmul bv12991816[24] x11) 
                        (bvadd (bvmul bv2871840[24] x14) 
                        (bvadd (bvmul bv12464679[24] x18) (bvmul bv1355731[24] x19))))))
	              bv3621332[24])
	 )))))))))))))))))))))))))))))))))))))))

)
